p wcnf 160 320 321 
1 5 96 0 
1 81 -109 0 
1 14 -119 0 
1 -112 -29 0 
1 140 137 0 
1 47 -36 0 
1 -6 -87 0 
1 -23 -160 0 
1 149 95 0 
1 16 -128 0 
1 -27 -152 0 
1 -122 -147 0 
1 51 -92 0 
1 -52 -154 0 
1 141 40 0 
1 159 115 0 
1 -54 -80 0 
1 -132 12 0 
1 137 -10 0 
1 -66 138 0 
1 -94 160 0 
1 124 -39 0 
1 9 -98 0 
1 109 -98 0 
1 104 -17 0 
1 48 61 0 
1 -40 -75 0 
1 -47 -50 0 
1 90 -128 0 
1 -17 -117 0 
1 138 -137 0 
1 -39 -27 0 
1 79 -142 0 
1 82 -23 0 
1 -86 143 0 
1 -58 148 0 
1 -3 -57 0 
1 -123 125 0 
1 -36 -124 0 
1 -30 17 0 
1 68 -159 0 
1 66 -17 0 
1 -133 -139 0 
1 -131 149 0 
1 -39 -14 0 
1 148 -68 0 
1 -160 -117 0 
1 16 104 0 
1 -118 -95 0 
1 128 -145 0 
1 -84 -122 0 
1 -19 32 0 
1 -118 -85 0 
1 132 -98 0 
1 115 64 0 
1 14 -134 0 
1 108 -57 0 
1 -119 -1 0 
1 -113 139 0 
1 -54 -1 0 
1 53 -81 0 
1 107 -75 0 
1 42 -52 0 
1 -62 4 0 
1 93 -160 0 
1 45 -56 0 
1 -144 83 0 
1 64 -75 0 
1 -21 -41 0 
1 26 4 0 
1 11 98 0 
1 46 -102 0 
1 -10 -90 0 
1 -111 -10 0 
1 -20 65 0 
1 -109 -108 0 
1 86 41 0 
1 -130 -35 0 
1 102 68 0 
1 1 112 0 
1 38 62 0 
1 149 -98 0 
1 -70 -154 0 
1 -92 102 0 
1 -138 -105 0 
1 -26 -152 0 
1 75 88 0 
1 64 139 0 
1 143 -153 0 
1 -16 -114 0 
1 -7 40 0 
1 146 71 0 
1 -111 -145 0 
1 113 -5 0 
1 58 160 0 
1 64 -81 0 
1 64 67 0 
1 32 120 0 
1 70 152 0 
1 83 -19 0 
1 158 121 0 
1 2 -149 0 
1 112 160 0 
1 40 -126 0 
1 -139 4 0 
1 25 97 0 
1 136 -42 0 
1 43 -24 0 
1 -160 10 0 
1 129 -58 0 
1 62 -76 0 
1 -97 -145 0 
1 21 -88 0 
1 11 -150 0 
1 9 -16 0 
1 -142 117 0 
1 93 -94 0 
1 -81 109 0 
1 87 -2 0 
1 43 -60 0 
1 -60 -157 0 
1 11 136 0 
1 145 78 0 
1 93 -20 0 
1 -100 47 0 
1 -41 158 0 
1 141 -127 0 
1 -124 -37 0 
1 73 92 0 
1 -91 46 0 
1 -49 -39 0 
1 117 18 0 
1 -115 -112 0 
1 -83 135 0 
1 105 120 0 
1 -101 115 0 
1 134 116 0 
1 -116 59 0 
1 33 -147 0 
1 -46 -128 0 
1 -102 136 0 
1 -80 45 0 
1 -35 -48 0 
1 142 105 0 
1 93 -153 0 
1 -116 -126 0 
1 -35 135 0 
1 -118 151 0 
1 -152 160 0 
1 117 -48 0 
1 -102 75 0 
1 116 -37 0 
1 -3 -98 0 
1 -43 82 0 
1 138 -100 0 
1 -47 86 0 
1 51 22 0 
1 111 -114 0 
1 36 -99 0 
1 -145 -4 0 
1 56 -99 0 
1 -112 -70 0 
1 -39 152 0 
1 -15 -66 0 
1 27 24 0 
1 -46 68 0 
1 -95 -135 0 
1 -100 6 0 
1 149 -158 0 
1 101 39 0 
1 -37 -103 0 
1 66 121 0 
1 154 -38 0 
1 -122 38 0 
1 -10 -79 0 
1 100 25 0 
1 -87 114 0 
1 75 151 0 
1 -91 86 0 
1 38 122 0 
1 122 80 0 
1 -105 -128 0 
1 -125 -146 0 
1 -52 106 0 
1 -134 -123 0 
1 74 -66 0 
1 134 -143 0 
1 -152 -12 0 
1 140 113 0 
1 93 138 0 
1 -56 -160 0 
1 -109 -72 0 
1 -81 -10 0 
1 101 122 0 
1 -160 -23 0 
1 113 36 0 
1 134 83 0 
1 12 -144 0 
1 87 34 0 
1 -82 136 0 
1 142 80 0 
1 -61 35 0 
1 38 94 0 
1 -146 6 0 
1 -156 41 0 
1 -112 -72 0 
1 33 39 0 
1 30 21 0 
1 27 54 0 
1 88 21 0 
1 12 -116 0 
1 78 -25 0 
1 153 -37 0 
1 -8 13 0 
1 12 -104 0 
1 6 -139 0 
1 56 84 0 
1 143 -158 0 
1 85 154 0 
1 -45 -135 0 
1 47 -68 0 
1 117 69 0 
1 40 30 0 
1 151 -104 0 
1 -140 125 0 
1 116 -146 0 
1 -2 142 0 
1 133 -81 0 
1 139 48 0 
1 38 -105 0 
1 -54 123 0 
1 134 120 0 
1 64 -77 0 
1 157 -19 0 
1 -146 -64 0 
1 -80 43 0 
1 -106 -18 0 
1 -75 2 0 
1 -90 57 0 
1 13 19 0 
1 107 -6 0 
1 -131 30 0 
1 156 -104 0 
1 124 -23 0 
1 62 110 0 
1 154 53 0 
1 98 -134 0 
1 -90 -109 0 
1 2 103 0 
1 -53 -85 0 
1 -114 88 0 
1 69 -100 0 
1 -113 31 0 
1 152 95 0 
1 90 12 0 
1 25 117 0 
1 143 -96 0 
1 30 -7 0 
1 146 80 0 
1 147 149 0 
1 39 -92 0 
1 89 -27 0 
1 19 -73 0 
1 -82 117 0 
1 -5 89 0 
1 -14 -9 0 
1 144 75 0 
1 -134 -30 0 
1 -22 126 0 
1 -107 -23 0 
1 79 151 0 
1 107 132 0 
1 -134 -115 0 
1 147 -93 0 
1 -147 -85 0 
1 -40 -38 0 
1 16 22 0 
1 38 -67 0 
1 70 -107 0 
1 19 8 0 
1 -83 149 0 
1 -32 143 0 
1 -116 -16 0 
1 -145 -17 0 
1 20 -37 0 
1 65 -40 0 
1 -83 -68 0 
1 -128 -35 0 
1 43 19 0 
1 65 132 0 
1 -140 133 0 
1 -80 31 0 
1 -40 -69 0 
1 -140 137 0 
1 -119 -145 0 
1 -46 -126 0 
1 -150 118 0 
1 138 7 0 
1 35 -59 0 
1 -10 102 0 
1 -11 -83 0 
1 54 100 0 
1 144 -11 0 
1 110 36 0 
1 -95 126 0 
1 7 43 0 
1 -46 -66 0 
1 -88 40 0 
1 105 34 0 
1 -160 101 0 
1 -20 -27 0 
1 -93 16 0 
1 -22 144 0 
1 -125 -61 0 
1 22 -14 0 
1 -155 -118 0 
1 -20 92 0 
1 -61 33 0 
1 95 94 0 
1 19 24 0 
